c 72_3_checker.cnf
c
c field = 72
c formula set type = 3_checker
c
p cnf 4 58
136 
138 
140 
-134 
137 
139 
141 
-135 
136 
138 
140 
-144 
137 
139 
141 
-145 
138 
140 
144 
-136 
139 
141 
145 
-137 
138 
140 
144 
-146 
139 
141 
145 
-147 
140 
144 
146 
-138 
141 
145 
147 
-139 
140 
144 
146 
-148 
141 
145 
147 
-149 
144 
146 
148 
-140 
145 
147 
149 
-141 
52 
82 
112 
-22 
53 
83 
113 
-23 
52 
82 
112 
-172 
53 
83 
113 
-173 
82 
112 
172 
-52 
83 
113 
173 
-53 
82 
112 
172 
-202 
83 
113 
173 
-203 
112 
172 
202 
-82 
113 
173 
203 
-83 
112 
172 
202 
-232 
113 
173 
203 
-233 
172 
202 
232 
-112 
173 
203 
233 
-113 
172 
202 
232 
-262 
173 
203 
233 
-263 
46 
78 
110 
-14 
47 
79 
111 
-15 
46 
78 
110 
-174 
47 
79 
111 
-175 
78 
110 
174 
-46 
79 
111 
175 
-47 
78 
110 
174 
-206 
79 
111 
175 
-207 
110 
174 
206 
-78 
111 
175 
207 
-79 
110 
174 
206 
-238 
111 
175 
207 
-239 
174 
206 
238 
-110 
175 
207 
239 
-111 
58 
86 
114 
-170 
59 
87 
115 
-171 
86 
114 
170 
-58 
87 
115 
171 
-59 
86 
114 
170 
-198 
87 
115 
171 
-199 
114 
170 
198 
-86 
115 
171 
199 
-87 
114 
170 
198 
-226 
115 
171 
199 
-227 
170 
198 
226 
-114 
171 
199 
227 
-115 
170 
198 
226 
-254 
171 
199 
227 
-255 
